; benchmark generated from python API
(set-info :status unknown)
(declare-fun S_4 () Real)
(declare-fun S_2 () Real)
(declare-fun C () Real)
(declare-fun A_1 () Real)
(declare-fun L_1 () Real)
(declare-fun S_0 () Real)
(declare-fun S_1 () Real)
(declare-fun A_0 () Real)
(declare-fun L_0 () Real)
(declare-fun L0 () Real)
(declare-fun A_2 () Real)
(declare-fun A_3 () Real)
(declare-fun L_3 () Real)
(declare-fun L_2 () Real)
(declare-fun S_3 () Real)
(declare-fun A_4 () Real)
(assert
 (let (($x37 (>= L0 0.0)))
 (let (($x758 (>= C 5.0)))
 (let (($x20294 (<= (+ (* 2.0 C) A_1 (* (- 1.0) L_0) (* (- 1.0) S_4)) 0.0)))
 (let (($x18843 (<= (+ (* 3.0 C) S_0 (* (- 1.0) S_4)) 0.0)))
 (let (($x1822 (<= (+ (* (- 1.0) L_1) A_3 (* (- 1.0) S_4)) 0.0)))
 (let (($x1061 (not (<= 0.0 (+ (* (- 1.0) L_2) L_1)))))
 (let (($x23811 (or $x1061 $x1822 $x18843 (not (<= L_1 (+ L_3 (* (- 1.0) A_3) A_2 C))) $x20294)))
 (let (($x3146 (<= (+ (* (- 1.0) L_2) A_3 (* (- 1.0) S_4)) 0.0)))
 (let (($x64 (= L_2 L_1)))
 (let (($x20312 (not (<= 0.0 (+ C (* (- 1.0) A_2) L_2 A_1 (* (- 1.0) L_0))))))
 (let (($x19626 (<= (+ (* (- 1.0) L_1) A_2 C (* (- 1.0) S_4)) 0.0)))
 (let (($x54 (= L_1 L_0)))
 (let (($x21188 (or $x54 (<= (+ L_1 (* (- 2.0) C) (* (- 1.0) A_1) S_3) (- 5.0)))))
 (let (($x20643 (<= 0.0 (+ (* (- 1.0) C) A_2 (* (- 1.0) L_1) (* (- 1.0) A_1) L_0))))
 (let ((?x280 (* (- 1.0) C)))
 (let ((?x503 (* (- 1.0) A_2)))
 (let ((?x484 (* (- 1.0) L_3)))
 (let ((?x19480 (+ ?x484 A_3 ?x503 L_1 ?x280)))
 (let (($x20632 (not (<= 0.0 ?x19480))))
 (let (($x19481 (>= ?x19480 5.0)))
 (let ((?x507 (* (- 1.0) A_1)))
 (let ((?x19008 (+ C ?x507 L_1 S_0)))
 (let (($x19432 (<= 0.0 ?x19008)))
 (let (($x19437 (not $x19432)))
 (let (($x74 (= L_3 L_2)))
 (let (($x20494 (<= (+ (* 2.0 C) A_1 L_3 (* (- 1.0) A_3) (* (- 1.0) L_0)) (- 5.0))))
 (let (($x2066 (= L_3 L_1)))
 (let (($x378 (<= (+ ?x280 A_2 ?x507) 0.0)))
 (let (($x31084 (or $x74 $x19432 $x19481 (<= (+ (* 3.0 C) L_3 (* (- 1.0) A_3) S_0) (- 5.0)))))
 (let (($x20547 (= (+ (* (- 2.0) C) L_1 ?x484 ?x507 A_3) 0.0)))
 (let (($x20231 (<= L_1 (+ L_3 (* (- 1.0) A_3) A_1 (* 2.0 C)))))
 (let (($x20232 (not $x20231)))
 (let (($x19488 (>= S_0 (+ L_3 (* (- 1.0) A_3) A_2 (* (- 2.0) L_1) A_1 ?x280))))
 (let ((?x1756 (* (- 2.0) L_1)))
 (let ((?x499 (* (- 1.0) A_3)))
 (let ((?x19475 (+ L_3 ?x499 A_2 ?x1756 A_1 C)))
 (let ((?x580 (* (- 1.0) L_0)))
 (let ((?x20310 (+ C ?x503 L_2 A_1 ?x580)))
 (let (($x20352 (<= ?x20310 (- 5.0))))
 (let (($x19684 (<= 0.0 (+ C ?x507 L_0 S_0))))
 (let (($x20350 (not $x19684)))
 (let (($x2181 (= L_2 L_0)))
 (let (($x31500 (or $x74 (<= (+ L_3 ?x499 A_2 ?x1756 A_1) (+ A_0 ?x580)) $x20232 $x20547)))
 (let (($x19253 (not (= 0.0 (+ ?x280 ?x503 ?x484 L_2 A_3)))))
 (let (($x1051 (<= 0.0 (+ ?x484 L_2))))
 (let (($x18317 (not (= 0.0 (+ ?x280 A_2 (* (- 1.0) L_2) L_1 ?x507)))))
 (let (($x31285 (or $x3146 (<= (+ (* 2.0 C) S_1 (* (- 1.0) S_4)) 0.0) $x19626)))
 (let (($x2039 (not (= L_0 L_1))))
 (let (($x31245 (or $x2039 $x2181 (<= 0.0 (+ ?x280 A_2 (* (- 1.0) L_2) ?x507 L_0)))))
 (let (($x1982 (not (= L_1 L_2))))
 (let (($x913 (not (<= 0.0 (+ (* (- 1.0) L_1) L_0)))))
 (let (($x18422 (<= (+ C (* (- 1.0) S_2) S_0) 0.0)))
 (let (($x18667 (or $x54 $x64 (= (+ ?x280 A_2 (* (- 1.0) L_2) L_1 ?x507) 0.0))))
 (let (($x120 (>= S_4 S_3)))
 (let (($x36 (>= L_0 L0)))
 (let (($x111 (>= S_1 S_0)))
 (let (($x114 (>= S_2 S_1)))
 (let (($x122 (>= A_1 A_0)))
 (let (($x123 (>= A_2 A_1)))
 (let (($x125 (>= A_4 A_3)))
 (and (<= (+ A_2 (* (- 1.0) L_2)) S_3) (not (<= (+ A_3 ?x484) S_3)) $x125 $x123 $x122 $x114 $x111 $x36 $x120 (or $x74 (not $x1051)) (or $x64 (<= (+ ?x503 L_2 S_2) (- 5.0))) (or $x54 $x913) (<= (+ (* (- 4.0) C) (* (- 1.0) S_0) S_3) 0.0) (<= (+ (* (- 2.0) C) (* (- 1.0) S_2) S_3) 0.0) (or $x64 $x1061) (or $x64 $x74 (= (+ ?x280 ?x503 ?x484 L_2 A_3) 0.0)) (or $x54 (<= ?x19008 (- 5.0))) $x18667 (or $x54 (<= (+ ?x280 ?x507 L_1 S_2) (- 5.0))) (or $x64 (<= (+ (* (- 2.0) C) ?x503 L_2 S_4) (- 5.0))) (<= (+ L_2 ?x280 ?x499 S_4) 0.0) (or $x54 $x378 $x1982) (<= (+ L_1 ?x503 S_2) 0.0) (or $x18422 $x19432) (or (<= (+ (* (- 1.0) S_2) ?x580 A_1) 0.0) $x18422) (<= (+ S_1 L_0 ?x507) 0.0) (<= (+ L_3 (* (- 1.0) A_4) S_4) 0.0) (or $x74 (<= (+ ?x280 L_3 ?x499 S_4) (- 5.0))) (or $x54 (<= S_0 (+ L_3 ?x499 A_2 ?x1756 A_1))) (or $x64 (not (= L_2 L_3)) (<= (+ ?x280 ?x503 A_3) 0.0)) (or $x54 (<= (+ L_1 ?x507 S_1) (- 5.0))) (or $x3146 (<= (+ C S_2 (* (- 1.0) S_4)) 0.0)) (or $x913 $x1982 $x2066 (<= (+ C L_3 ?x499 ?x580 A_2) 0.0)) (or $x54 $x74 $x18843 $x19626) (or $x64 $x18317 (<= ?x19008 (- 5.0))) $x31245 (or $x64 (<= (+ (* 2.0 C) ?x503 L_2 S_0) (- 5.0)) $x19432) (or $x74 (<= (+ L_3 ?x499 S_3) (- 5.0))) (or $x64 (<= (+ ?x280 ?x503 L_2 S_3) (- 5.0))) $x31285 (or $x74 (<= (+ (* 2.0 C) L_3 ?x499 S_1) (- 5.0)) $x19481) (or $x74 (<= (+ C L_3 ?x499 S_2) (- 5.0))) (or $x64 $x3146 $x18317 $x18843) (<= (+ (* (- 2.0) C) S_2 L_0 (* (- 1.0) A_0)) 0.0) (or $x19253 $x20294 $x20350 (not $x20352)) (or $x1051 $x18843 $x19253 $x19684) (or $x54 $x20231) (or $x74 $x19626 $x20232 $x20547) (or $x74 $x19481 $x20232 $x20547) (or $x74 (>= S_1 (+ L_3 ?x499 A_2 ?x1756 A_1)) $x20232 $x20547) $x31500 (or $x54 (<= S_1 ?x19475)) (or $x2181 $x20350 $x20352) (or $x54 (<= (+ (* (- 3.0) C) ?x507 L_1 S_4) (- 5.0))) (<= (+ L_1 ?x503 (* (- 2.0) C) S_4) 0.0) (<= (+ (* (- 4.0) C) S_4 L_0 (* (- 1.0) A_0)) 0.0) (or $x74 (>= S_2 ?x19475) $x20232 $x20547) (or $x64 (<= (+ L_2 ?x503 C S_1) (- 5.0))) (or $x74 $x19488 $x20232 $x20547) (<= (+ (* (- 2.0) C) S_2 (* (- 1.0) S_1)) 0.0) (<= (+ (* (- 4.0) C) (* (- 1.0) S_1) S_4) 0.0) (<= (+ (* (- 3.0) C) S_2 (* (- 1.0) S_0)) 0.0) (<= (+ (* (- 5.0) C) (* (- 1.0) S_0) S_4) 0.0) (<= (+ L_1 (* (- 2.0) C) ?x507 S_3) 0.0) $x31084 (or $x378 $x2066 $x19437 $x20494 $x20632) (or $x74 $x19437 $x19481 $x20312) (or $x74 $x18843 $x19626 $x20312) (or $x18843 $x20294 $x20632 (not $x20643)) $x21188 (<= (+ (* (- 3.0) C) (* (- 1.0) S_1) S_3) 0.0) (<= (+ (* (- 3.0) C) S_3 L_0 (* (- 1.0) A_0)) 0.0) (or $x54 $x1061 $x1822 $x18843 $x19626) (or $x1061 $x1822 $x18843 $x19626 $x20312) (<= (+ L_1 ?x503 ?x280 S_3) 0.0) (or $x64 $x3146 $x18843 $x20294) (<= (+ (* (- 3.0) C) ?x507 L_0 S_4) 0.0) $x23811 $x758 $x37 (<= (+ S_0 L_0 (* (- 1.0) A_0)) 0.0) (<= (+ ?x280 L_0 S_1 (* (- 1.0) A_0)) 0.0) (<= (+ (* (- 2.0) C) S_1 (* (- 1.0) S_0)) 0.0) (<= (+ L_1 ?x280 ?x507 S_2) 0.0) (<= (+ (* (- 3.0) C) (* (- 1.0) S_2) S_4) 0.0)))))))))))))))))))))))))))))))))))))))))))))))))))))))))))))))
(check-sat)
